output.cnf
p cnf 36 147
1 5 9 13 17 21 0
2 6 10 14 18 22 0
3 7 11 15 19 23 0
4 8 12 16 20 24 0
-1 -5 0
-1 -9 0
-1 -13 0
-1 -17 0
-1 -21 0
-5 -9 0
-5 -13 0
-5 -17 0
-5 -21 0
-9 -13 0
-9 -17 0
-9 -21 0
-13 -17 0
-13 -21 0
-17 -21 0
-2 -6 0
-2 -10 0
-2 -14 0
-2 -18 0
-2 -22 0
-6 -10 0
-6 -14 0
-6 -18 0
-6 -22 0
-10 -14 0
-10 -18 0
-10 -22 0
-14 -18 0
-14 -22 0
-18 -22 0
-3 -7 0
-3 -11 0
-3 -15 0
-3 -19 0
-3 -23 0
-7 -11 0
-7 -15 0
-7 -19 0
-7 -23 0
-11 -15 0
-11 -19 0
-11 -23 0
-15 -19 0
-15 -23 0
-19 -23 0
-4 -8 0
-4 -12 0
-4 -16 0
-4 -20 0
-4 -24 0
-8 -12 0
-8 -16 0
-8 -20 0
-8 -24 0
-12 -16 0
-12 -20 0
-12 -24 0
-16 -20 0
-16 -24 0
-20 -24 0
-1 -2 0
-1 -3 0
-1 -4 0
-2 -3 0
-2 -4 0
-3 -4 0
-5 -6 0
-5 -7 0
-5 -8 0
-6 -7 0
-6 -8 0
-7 -8 0
-9 -10 0
-9 -11 0
-9 -12 0
-10 -11 0
-10 -12 0
-11 -12 0
-13 -14 0
-13 -15 0
-13 -16 0
-14 -15 0
-14 -16 0
-15 -16 0
-17 -18 0
-17 -19 0
-17 -20 0
-18 -19 0
-18 -20 0
-19 -20 0
-21 -22 0
-21 -23 0
-21 -24 0
-22 -23 0
-22 -24 0
-23 -24 0
25 28 31 34 0
26 29 32 35 0
27 30 33 36 0
-25 -28 0
-25 -31 0
-25 -34 0
-28 -31 0
-28 -34 0
-31 -34 0
-26 -29 0
-26 -32 0
-26 -35 0
-29 -32 0
-29 -35 0
-32 -35 0
-27 -30 0
-27 -33 0
-27 -36 0
-30 -33 0
-30 -36 0
-33 -36 0
-25 -26 0
-25 -27 0
-26 -27 0
-28 -29 0
-28 -30 0
-29 -30 0
-31 -32 0
-31 -33 0
-32 -33 0
-34 -35 0
-34 -36 0
-35 -36 0
28 29 30  -17 0
28 29 30  -18 0
28 29 30  -19 0
28 29 30  -20 0

17 18 19 20  -28 0
17 18 19 20  -29 0
17 18 19 20  -30 0

25 26 27  -13 0
25 26 27  -14 0
25 26 27  -15 0
25 26 27  -16 0

13 14 15 16  -25 0
13 14 15 16  -26 0
13 14 15 16  -27 0

