output.txt
p cnf 36 148
1 3 5 7 9 11 0
2 4 6 8 10 12 0
-1 -3 0
-1 -5 0
-1 -7 0
-1 -9 0
-1 -11 0
-3 -5 0
-3 -7 0
-3 -9 0
-3 -11 0
-5 -7 0
-5 -9 0
-5 -11 0
-7 -9 0
-7 -11 0
-9 -11 0
-2 -4 0
-2 -6 0
-2 -8 0
-2 -10 0
-2 -12 0
-4 -6 0
-4 -8 0
-4 -10 0
-4 -12 0
-6 -8 0
-6 -10 0
-6 -12 0
-8 -10 0
-8 -12 0
-10 -12 0
-1 -2 0
-3 -4 0
-5 -6 0
-7 -8 0
-9 -10 0
-11 -12 0
13 16 19 22 0
14 17 20 23 0
15 18 21 24 0
-13 -16 0
-13 -19 0
-13 -22 0
-16 -19 0
-16 -22 0
-19 -22 0
-14 -17 0
-14 -20 0
-14 -23 0
-17 -20 0
-17 -23 0
-20 -23 0
-15 -18 0
-15 -21 0
-15 -24 0
-18 -21 0
-18 -24 0
-21 -24 0
-13 -14 0
-13 -15 0
-14 -15 0
-16 -17 0
-16 -18 0
-17 -18 0
-19 -20 0
-19 -21 0
-20 -21 0
-22 -23 0
-22 -24 0
-23 -24 0
25 28 31 34 0
26 29 32 35 0
27 30 33 36 0
-25 -28 0
-25 -31 0
-25 -34 0
-28 -31 0
-28 -34 0
-31 -34 0
-26 -29 0
-26 -32 0
-26 -35 0
-29 -32 0
-29 -35 0
-32 -35 0
-27 -30 0
-27 -33 0
-27 -36 0
-30 -33 0
-30 -36 0
-33 -36 0
-25 -26 0
-25 -27 0
-26 -27 0
-28 -29 0
-28 -30 0
-29 -30 0
-31 -32 0
-31 -33 0
-32 -33 0
-34 -35 0
-34 -36 0
-35 -36 0
34 35 36  -22 0
34 35 36  -23 0
34 35 36  -24 0

22 23 24  -34 0
22 23 24  -35 0
22 23 24  -36 0

31 32 33  -19 0
31 32 33  -20 0
31 32 33  -21 0

19 20 21  -31 0
19 20 21  -32 0
19 20 21  -33 0

28 29 30  -16 0
28 29 30  -17 0
28 29 30  -18 0

28 29 30  -9 0
28 29 30  -10 0

16 17 18  -28 0
16 17 18  -29 0
16 17 18  -30 0

16 17 18  -9 0
16 17 18  -10 0

9 10  -28 0
9 10  -29 0
9 10  -30 0

9 10  -16 0
9 10  -17 0
9 10  -18 0

25 26 27  -13 0
25 26 27  -14 0
25 26 27  -15 0

25 26 27  -7 0
25 26 27  -8 0

13 14 15  -25 0
13 14 15  -26 0
13 14 15  -27 0

13 14 15  -7 0
13 14 15  -8 0

7 8  -25 0
7 8  -26 0
7 8  -27 0

7 8  -13 0
7 8  -14 0
7 8  -15 0

